c Best-of-random test
c Algorithm against which generated: EdmondsCarpScaling
c Target objective: vertexCount
c Index in row: 8
        
p max 100 395
n 1 s
n 100 t
      
a 1 6 10000
a 6 1 10000
a 1 2 10000
a 2 1 10000
a 6 11 10000
a 11 6 10000
a 2 3 10000
a 3 2 10000
a 11 16 10000
a 16 11 10000
a 3 4 10000
a 4 3 10000
a 16 21 10000
a 21 16 10000
a 4 5 10000
a 5 4 10000
a 2 7 10000
a 7 2 10000
a 6 7 10000
a 7 6 10000
a 7 12 10000
a 12 7 10000
a 7 8 10000
a 8 7 10000
a 12 17 10000
a 17 12 10000
a 8 9 10000
a 9 8 10000
a 17 22 10000
a 22 17 10000
a 9 10 10000
a 10 9 10000
a 3 8 10000
a 8 3 10000
a 11 12 10000
a 12 11 10000
a 8 13 10000
a 13 8 10000
a 12 13 10000
a 13 12 10000
a 13 18 10000
a 18 13 10000
a 13 14 10000
a 14 13 10000
a 18 23 10000
a 23 18 10000
a 14 15 10000
a 15 14 10000
a 4 9 10000
a 9 4 10000
a 16 17 10000
a 17 16 10000
a 9 14 10000
a 14 9 10000
a 17 18 10000
a 18 17 10000
a 14 19 10000
a 19 14 10000
a 18 19 10000
a 19 18 10000
a 19 24 10000
a 24 19 10000
a 19 20 10000
a 20 19 10000
a 5 10 10000
a 10 5 10000
a 21 22 10000
a 22 21 10000
a 10 15 10000
a 15 10 10000
a 22 23 10000
a 23 22 10000
a 15 20 10000
a 20 15 10000
a 23 24 10000
a 24 23 10000
a 20 25 10000
a 25 20 10000
a 24 25 10000
a 25 24 10000
a 26 31 10000
a 31 26 10000
a 26 27 10000
a 27 26 10000
a 31 36 10000
a 36 31 10000
a 27 28 10000
a 28 27 10000
a 36 41 10000
a 41 36 10000
a 28 29 10000
a 29 28 10000
a 41 46 10000
a 46 41 10000
a 29 30 10000
a 30 29 10000
a 27 32 10000
a 32 27 10000
a 31 32 10000
a 32 31 10000
a 32 37 10000
a 37 32 10000
a 32 33 10000
a 33 32 10000
a 37 42 10000
a 42 37 10000
a 33 34 10000
a 34 33 10000
a 42 47 10000
a 47 42 10000
a 34 35 10000
a 35 34 10000
a 28 33 10000
a 33 28 10000
a 36 37 10000
a 37 36 10000
a 33 38 10000
a 38 33 10000
a 37 38 10000
a 38 37 10000
a 38 43 10000
a 43 38 10000
a 38 39 10000
a 39 38 10000
a 43 48 10000
a 48 43 10000
a 39 40 10000
a 40 39 10000
a 29 34 10000
a 34 29 10000
a 41 42 10000
a 42 41 10000
a 34 39 10000
a 39 34 10000
a 42 43 10000
a 43 42 10000
a 39 44 10000
a 44 39 10000
a 43 44 10000
a 44 43 10000
a 44 49 10000
a 49 44 10000
a 44 45 10000
a 45 44 10000
a 30 35 10000
a 35 30 10000
a 46 47 10000
a 47 46 10000
a 35 40 10000
a 40 35 10000
a 47 48 10000
a 48 47 10000
a 40 45 10000
a 45 40 10000
a 48 49 10000
a 49 48 10000
a 45 50 10000
a 50 45 10000
a 49 50 10000
a 50 49 10000
a 51 56 10000
a 56 51 10000
a 51 52 10000
a 52 51 10000
a 56 61 10000
a 61 56 10000
a 52 53 10000
a 53 52 10000
a 61 66 10000
a 66 61 10000
a 53 54 10000
a 54 53 10000
a 66 71 10000
a 71 66 10000
a 54 55 10000
a 55 54 10000
a 52 57 10000
a 57 52 10000
a 56 57 10000
a 57 56 10000
a 57 62 10000
a 62 57 10000
a 57 58 10000
a 58 57 10000
a 62 67 10000
a 67 62 10000
a 58 59 10000
a 59 58 10000
a 67 72 10000
a 72 67 10000
a 59 60 10000
a 60 59 10000
a 53 58 10000
a 58 53 10000
a 61 62 10000
a 62 61 10000
a 58 63 10000
a 63 58 10000
a 62 63 10000
a 63 62 10000
a 63 68 10000
a 68 63 10000
a 63 64 10000
a 64 63 10000
a 68 73 10000
a 73 68 10000
a 64 65 10000
a 65 64 10000
a 54 59 10000
a 59 54 10000
a 66 67 10000
a 67 66 10000
a 59 64 10000
a 64 59 10000
a 67 68 10000
a 68 67 10000
a 64 69 10000
a 69 64 10000
a 68 69 10000
a 69 68 10000
a 69 74 10000
a 74 69 10000
a 69 70 10000
a 70 69 10000
a 55 60 10000
a 60 55 10000
a 71 72 10000
a 72 71 10000
a 60 65 10000
a 65 60 10000
a 72 73 10000
a 73 72 10000
a 65 70 10000
a 70 65 10000
a 73 74 10000
a 74 73 10000
a 70 75 10000
a 75 70 10000
a 74 75 10000
a 75 74 10000
a 76 81 10000
a 81 76 10000
a 76 77 10000
a 77 76 10000
a 81 86 10000
a 86 81 10000
a 77 78 10000
a 78 77 10000
a 86 91 10000
a 91 86 10000
a 78 79 10000
a 79 78 10000
a 91 96 10000
a 96 91 10000
a 79 80 10000
a 80 79 10000
a 77 82 10000
a 82 77 10000
a 81 82 10000
a 82 81 10000
a 82 87 10000
a 87 82 10000
a 82 83 10000
a 83 82 10000
a 87 92 10000
a 92 87 10000
a 83 84 10000
a 84 83 10000
a 92 97 10000
a 97 92 10000
a 84 85 10000
a 85 84 10000
a 78 83 10000
a 83 78 10000
a 86 87 10000
a 87 86 10000
a 83 88 10000
a 88 83 10000
a 87 88 10000
a 88 87 10000
a 88 93 10000
a 93 88 10000
a 88 89 10000
a 89 88 10000
a 93 98 10000
a 98 93 10000
a 89 90 10000
a 90 89 10000
a 79 84 10000
a 84 79 10000
a 91 92 10000
a 92 91 10000
a 84 89 10000
a 89 84 10000
a 92 93 10000
a 93 92 10000
a 89 94 10000
a 94 89 10000
a 93 94 10000
a 94 93 10000
a 94 99 10000
a 99 94 10000
a 94 95 10000
a 95 94 10000
a 80 85 10000
a 85 80 10000
a 96 97 10000
a 97 96 10000
a 85 90 10000
a 90 85 10000
a 97 98 10000
a 98 97 10000
a 90 95 10000
a 95 90 10000
a 98 99 10000
a 99 98 10000
a 95 100 10000
a 100 95 10000
a 99 100 10000
a 100 99 10000
a 1 44 150
a 2 38 94
a 3 48 114
a 4 50 89
a 5 33 181
a 6 37 132
a 7 40 49
a 8 47 199
a 9 36 347
a 10 49 374
a 11 26 178
a 12 32 338
a 13 43 59
a 14 27 60
a 15 45 313
a 16 39 388
a 17 35 323
a 18 31 84
a 19 42 223
a 20 46 337
a 21 41 124
a 22 30 192
a 23 34 143
a 24 28 331
a 25 29 244
a 26 51 203
a 27 71 222
a 28 55 100
a 29 54 70
a 30 56 396
a 31 68 87
a 32 58 173
a 33 62 148
a 34 66 61
a 35 57 121
a 36 64 17
a 37 61 322
a 38 65 243
a 39 59 334
a 40 75 394
a 41 60 362
a 42 73 125
a 43 74 130
a 44 69 153
a 45 63 325
a 46 70 387
a 47 67 220
a 48 52 32
a 49 72 336
a 50 53 159
a 51 97 371
a 52 99 51
a 53 86 232
a 54 100 319
a 55 76 388
a 56 95 341
a 57 94 12
a 58 90 277
a 59 92 307
a 60 84 391
a 61 79 94
a 62 82 104
a 63 88 60
a 64 80 232
a 65 87 67
a 66 89 53
a 67 85 145
a 68 91 209
a 69 78 83
a 70 77 256
a 71 93 38
a 72 83 44
a 73 81 365
a 74 96 94
a 75 98 370
